163 115 109 129 147 34 66 138 160 103 100 158 2 113 107 39 165 43 48 67 3 149 188 198 77 137 145 96 148 84 174 92 178 10 119 152 187 117 26 133 182 122 120 56 195 71 19 141 65 22 112 146 63 116 37 36 32 90 46 70 14 170 94 47 8 75 135 132 95 5 171 7 15 79 6 143 55 162 82 166 64 167 183 59 30 192 194 136 189 127 156 86 9 78 168 13 33 105 74 49 11 27 87 104 169 121 155 29 118 18 38 161 58 25 159 42 150 40 60 88 142 193 139 151 185 17 128 175 108 191 97 45 54 114 134 69 110 140 184 172 196 28 23 52 4 44 81 190 130 106 126 89 186 41 125 20 154 180 93 83 62 85 73 53 101 177 153 0 72 1 76 50 179 173 164 111 144 102 61 16 123 24 199 35 57 12 80 31 98 131 51 176 181 91 124 197 21 68 99 157